language Essence 1.3

letting bot_end be
        [21, 314, 69, 318, 132, 350, 341, 294, 84, 362, 94, 305, 363, 80, 337, 29, 354, 4, 332, 352, 93; int(1..21)]
letting bot_start be
        [358, 93, 295, 108, 341, 140, 134, 6, 258, 107, 360, 61, 176, 317, 53, 304, 92, 209, 25, 135, 333; int(1..21)]
letting buffer_col be 2
letting buffer_row be 2
letting corridor_size be 1
letting n_shelves_col be 1
letting n_shelves_row be 24
letting shelf_col_size be 2
letting shelf_row_size be 1
